0 0 0 0
0 1 0 0
0 2 0 8
0 3 0 0
0 4 0 5
0 5 0 13
0 6 0 5
0 7 0 25
0 8 0 4
0 9 0 41
0 10 0 8
0 11 0 13
0 12 0 32
0 13 0 8
0 14 0 26
0 15 0 27
0 16 0 32
0 17 0 41
0 18 0 21
0 19 0 32
0 20 0 17
0 21 0 35
0 22 0 25
0 23 0 50
0 24 0 42
0 25 0 35
0 26 0 90
0 27 0 45
0 28 0 25
0 29 0 59
0 30 0 69
0 31 0 15
0 32 0 51
0 33 0 69
0 34 0 70
0 35 0 38
0 36 0 63
0 37 0 38
0 38 0 76
0 39 0 57
0 40 0 50
0 41 0 37
0 42 0 59
0 43 0 70
0 44 0 59
0 45 0 77
0 46 0 80
0 47 0 87
0 48 0 83
0 49 0 75
0 50 0 90
0 51 0 93
0 52 0 83
0 53 0 87
0 54 0 93
0 55 0 101
0 56 0 80
0 57 0 84
0 58 0 99
0 59 0 104
0 60 0 101
0 61 0 107
